50
14909

135 596
815 974
882 283
190 205
682 586
390 689
792 137
868 895
260 394
866 355
873 608
501 920
969 521
289 500
244 980
604 205
635 26
617 460
435 291
867 784
982 855
258 374
239 868
785 181
955 731
564 915
463 591
74 69
689 948
964 823
735 704
867 347
243 930
358 47
382 446
934 414
135 142
310 239
38 750
935 790
5 881
820 193
691 338
737 423
334 963
98 652
485 571
903 301
123 292
315 630
